c Cardinality constraint <=k(x_1,...,x_n) for k = 2 and n = 8.
p cnf 22 33
-1 9 0
-10 0
-2 11 0
-9 11 0
-2 -9 12 0
-10 12 0
-2 -10 0
-3 13 0
-11 13 0
-3 -11 14 0
-12 14 0
-3 -12 0
-4 15 0
-13 15 0
-4 -13 16 0
-14 16 0
-4 -14 0
-5 17 0
-15 17 0
-5 -15 18 0
-16 18 0
-5 -16 0
-6 19 0
-17 19 0
-6 -17 20 0
-18 20 0
-6 -18 0
-7 21 0
-19 21 0
-7 -19 22 0
-20 22 0
-7 -20 0
-8 -22 0
